c t mc
c file mc2022_track1_045.cnf
p cnf 135 510
1 0
10 11 0
19 20 21 0
28 29 30 31 0
37 38 39 40 41 0
46 47 48 49 50 51 0
55 56 57 58 59 60 61 0
64 65 66 67 68 69 70 71 0
73 74 75 76 77 78 79 80 81 0
82 83 84 85 86 87 88 89 90 0
91 92 93 94 95 96 97 98 99 0
100 101 102 103 104 105 106 107 108 0
109 110 111 112 113 114 115 116 117 0
118 119 120 121 122 123 124 125 126 0
127 128 129 130 131 132 133 134 135 0
-19 -127 0
-20 -128 0
-21 -129 0
-22 -130 0
-23 -131 0
-24 -132 0
-25 -133 0
-26 -134 0
-27 -135 0
-82 -91 0
-83 -92 0
-84 -93 0
-85 -94 0
-86 -95 0
-87 -96 0
-88 -97 0
-89 -98 0
-90 -99 0
-64 -109 0
-65 -110 0
-66 -111 0
-67 -112 0
-68 -113 0
-69 -114 0
-70 -115 0
-71 -116 0
-72 -117 0
-19 -91 0
-20 -92 0
-21 -93 0
-22 -94 0
-23 -95 0
-24 -96 0
-25 -97 0
-26 -98 0
-27 -99 0
-37 -109 0
-38 -110 0
-39 -111 0
-40 -112 0
-41 -113 0
-42 -114 0
-43 -115 0
-44 -116 0
-45 -117 0
-1 -127 0
-2 -128 0
-3 -129 0
-4 -130 0
-5 -131 0
-6 -132 0
-7 -133 0
-8 -134 0
-9 -135 0
-82 -127 0
-83 -128 0
-84 -129 0
-85 -130 0
-86 -131 0
-87 -132 0
-88 -133 0
-89 -134 0
-90 -135 0
-28 -100 0
-29 -101 0
-30 -102 0
-31 -103 0
-32 -104 0
-33 -105 0
-34 -106 0
-35 -107 0
-36 -108 0
-10 -100 0
-11 -101 0
-12 -102 0
-13 -103 0
-14 -104 0
-15 -105 0
-16 -106 0
-17 -107 0
-18 -108 0
-91 -118 0
-92 -119 0
-93 -120 0
-94 -121 0
-95 -122 0
-96 -123 0
-97 -124 0
-98 -125 0
-99 -126 0
-19 -55 0
-20 -56 0
-21 -57 0
-22 -58 0
-23 -59 0
-24 -60 0
-25 -61 0
-26 -62 0
-27 -63 0
-1 -91 0
-2 -92 0
-3 -93 0
-4 -94 0
-5 -95 0
-6 -96 0
-7 -97 0
-8 -98 0
-9 -99 0
-19 -118 0
-20 -119 0
-21 -120 0
-22 -121 0
-23 -122 0
-24 -123 0
-25 -124 0
-26 -125 0
-27 -126 0
-46 -118 0
-47 -119 0
-48 -120 0
-49 -121 0
-50 -122 0
-51 -123 0
-52 -124 0
-53 -125 0
-54 -126 0
-73 -127 0
-74 -128 0
-75 -129 0
-76 -130 0
-77 -131 0
-78 -132 0
-79 -133 0
-80 -134 0
-81 -135 0
-100 -109 0
-101 -110 0
-102 -111 0
-103 -112 0
-104 -113 0
-105 -114 0
-106 -115 0
-107 -116 0
-108 -117 0
-19 -82 0
-20 -83 0
-21 -84 0
-22 -85 0
-23 -86 0
-24 -87 0
-25 -88 0
-26 -89 0
-27 -90 0
-46 -82 0
-47 -83 0
-48 -84 0
-49 -85 0
-50 -86 0
-51 -87 0
-52 -88 0
-53 -89 0
-54 -90 0
-37 -100 0
-38 -101 0
-39 -102 0
-40 -103 0
-41 -104 0
-42 -105 0
-43 -106 0
-44 -107 0
-45 -108 0
-82 -100 0
-83 -101 0
-84 -102 0
-85 -103 0
-86 -104 0
-87 -105 0
-88 -106 0
-89 -107 0
-90 -108 0
-1 -118 0
-2 -119 0
-3 -120 0
-4 -121 0
-5 -122 0
-6 -123 0
-7 -124 0
-8 -125 0
-9 -126 0
-10 -109 0
-11 -110 0
-12 -111 0
-13 -112 0
-14 -113 0
-15 -114 0
-16 -115 0
-17 -116 0
-18 -117 0
-19 -46 0
-20 -47 0
-21 -48 0
-22 -49 0
-23 -50 0
-24 -51 0
-25 -52 0
-26 -53 0
-27 -54 0
-1 -82 0
-2 -83 0
-3 -84 0
-4 -85 0
-5 -86 0
-6 -87 0
-7 -88 0
-8 -89 0
-9 -90 0
-46 -127 0
-47 -128 0
-48 -129 0
-49 -130 0
-50 -131 0
-51 -132 0
-52 -133 0
-53 -134 0
-54 -135 0
-91 -109 0
-92 -110 0
-93 -111 0
-94 -112 0
-95 -113 0
-96 -114 0
-97 -115 0
-98 -116 0
-99 -117 0
-73 -118 0
-74 -119 0
-75 -120 0
-76 -121 0
-77 -122 0
-78 -123 0
-79 -124 0
-80 -125 0
-81 -126 0
-100 -118 0
-101 -119 0
-102 -120 0
-103 -121 0
-104 -122 0
-105 -123 0
-106 -124 0
-107 -125 0
-108 -126 0
-19 -109 0
-20 -110 0
-21 -111 0
-22 -112 0
-23 -113 0
-24 -114 0
-25 -115 0
-26 -116 0
-27 -117 0
-1 -109 0
-2 -110 0
-3 -111 0
-4 -112 0
-5 -113 0
-6 -114 0
-7 -115 0
-8 -116 0
-9 -117 0
-82 -109 0
-83 -110 0
-84 -111 0
-85 -112 0
-86 -113 0
-87 -114 0
-88 -115 0
-89 -116 0
-90 -117 0
-109 -127 0
-110 -128 0
-111 -129 0
-112 -130 0
-113 -131 0
-114 -132 0
-115 -133 0
-116 -134 0
-117 -135 0
-10 -82 0
-11 -83 0
-12 -84 0
-13 -85 0
-14 -86 0
-15 -87 0
-16 -88 0
-17 -89 0
-18 -90 0
-19 -73 0
-20 -74 0
-21 -75 0
-22 -76 0
-23 -77 0
-24 -78 0
-25 -79 0
-26 -80 0
-27 -81 0
-10 -19 0
-11 -20 0
-12 -21 0
-13 -22 0
-14 -23 0
-15 -24 0
-16 -25 0
-17 -26 0
-18 -27 0
-118 -127 0
-119 -128 0
-120 -129 0
-121 -130 0
-122 -131 0
-123 -132 0
-124 -133 0
-125 -134 0
-126 -135 0
-46 -100 0
-47 -101 0
-48 -102 0
-49 -103 0
-50 -104 0
-51 -105 0
-52 -106 0
-53 -107 0
-54 -108 0
-10 -118 0
-11 -119 0
-12 -120 0
-13 -121 0
-14 -122 0
-15 -123 0
-16 -124 0
-17 -125 0
-18 -126 0
-91 -100 0
-92 -101 0
-93 -102 0
-94 -103 0
-95 -104 0
-96 -105 0
-97 -106 0
-98 -107 0
-99 -108 0
-19 -37 0
-20 -38 0
-21 -39 0
-22 -40 0
-23 -41 0
-24 -42 0
-25 -43 0
-26 -44 0
-27 -45 0
-73 -109 0
-74 -110 0
-75 -111 0
-76 -112 0
-77 -113 0
-78 -114 0
-79 -115 0
-80 -116 0
-81 -117 0
-100 -127 0
-101 -128 0
-102 -129 0
-103 -130 0
-104 -131 0
-105 -132 0
-106 -133 0
-107 -134 0
-108 -135 0
-19 -100 0
-20 -101 0
-21 -102 0
-22 -103 0
-23 -104 0
-24 -105 0
-25 -106 0
-26 -107 0
-27 -108 0
-1 -100 0
-2 -101 0
-3 -102 0
-4 -103 0
-5 -104 0
-6 -105 0
-7 -106 0
-8 -107 0
-9 -108 0
-64 -100 0
-65 -101 0
-66 -102 0
-67 -103 0
-68 -104 0
-69 -105 0
-70 -106 0
-71 -107 0
-72 -108 0
-109 -118 0
-110 -119 0
-111 -120 0
-112 -121 0
-113 -122 0
-114 -123 0
-115 -124 0
-116 -125 0
-117 -126 0
-10 -91 0
-11 -92 0
-12 -93 0
-13 -94 0
-14 -95 0
-15 -96 0
-16 -97 0
-17 -98 0
-18 -99 0
-19 -64 0
-20 -65 0
-21 -66 0
-22 -67 0
-23 -68 0
-24 -69 0
-25 -70 0
-26 -71 0
-27 -72 0
-37 -118 0
-38 -119 0
-39 -120 0
-40 -121 0
-41 -122 0
-42 -123 0
-43 -124 0
-44 -125 0
-45 -126 0
-82 -118 0
-83 -119 0
-84 -120 0
-85 -121 0
-86 -122 0
-87 -123 0
-88 -124 0
-89 -125 0
-90 -126 0
-46 -109 0
-47 -110 0
-48 -111 0
-49 -112 0
-50 -113 0
-51 -114 0
-52 -115 0
-53 -116 0
-54 -117 0
-10 -127 0
-11 -128 0
-12 -129 0
-13 -130 0
-14 -131 0
-15 -132 0
-16 -133 0
-17 -134 0
-18 -135 0
-91 -127 0
-92 -128 0
-93 -129 0
-94 -130 0
-95 -131 0
-96 -132 0
-97 -133 0
-98 -134 0
-99 -135 0
-19 -28 0
-20 -29 0
-21 -30 0
-22 -31 0
-23 -32 0
-24 -33 0
-25 -34 0
-26 -35 0
-27 -36 0
-73 -100 0
-74 -101 0
-75 -102 0
-76 -103 0
-77 -104 0
-78 -105 0
-79 -106 0
-80 -107 0
-81 -108 0
